Academic license - for non-commercial use only - expires 2022-11-10
Using license file /home/benedond/Apps/gurobi/gurobi950/gurobi.lic
Using gurobi.env file
Set parameter Threads to value 1
Changed value of parameter TimeLimit to 1200.0
   Prev: inf  Min: 0.0  Max: inf  Default: inf
Gurobi Optimizer version 9.1.2 build v9.1.2rc0 (linux64)
Thread count: 2 physical cores, 4 logical processors, using up to 1 threads
Optimize a model with 2108 rows, 1957 columns and 9439 nonzeros
Model fingerprint: 0x0adbf8d6
Variable types: 60 continuous, 1897 integer (1897 binary)
Coefficient statistics:
  Matrix range     [2e-01, 5e+02]
  Objective range  [5e-03, 3e-01]
  Bounds range     [1e+00, 1e+00]
  RHS range        [1e+00, 1e+03]
Presolve removed 206 rows and 98 columns
Presolve time: 0.04s
Presolved: 1902 rows, 1859 columns, 8885 nonzeros
Variable types: 59 continuous, 1800 integer (1800 binary)
Found heuristic solution: objective 4.3946641

Root relaxation: objective 2.137045e+00, 2256 iterations, 0.06 seconds

    Nodes    |    Current Node    |     Objective Bounds      |     Work
 Expl Unexpl |  Obj  Depth IntInf | Incumbent    BestBd   Gap | It/Node Time

     0     0    2.13704    0  171    4.39466    2.13704  51.4%     -    0s
     0     0    2.19506    0  196    4.39466    2.19506  50.1%     -    0s
H    0     0                       4.2137405    2.19506  47.9%     -    0s
H    0     0                       3.8011909    2.19506  42.3%     -    0s
     0     0    2.19603    0  166    3.80119    2.19603  42.2%     -    0s
     0     0    2.27767    0  132    3.80119    2.27767  40.1%     -    0s
H    0     0                       3.6102977    2.27767  36.9%     -    0s
     0     0    2.29711    0  138    3.61030    2.29711  36.4%     -    0s
     0     0    2.37693    0  192    3.61030    2.37693  34.2%     -    0s
     0     0    2.40849    0  126    3.61030    2.40849  33.3%     -    0s
     0     0    2.41658    0  138    3.61030    2.41658  33.1%     -    0s
     0     0    2.41826    0  149    3.61030    2.41826  33.0%     -    0s
     0     0    2.41889    0  134    3.61030    2.41889  33.0%     -    0s
     0     0    2.41911    0  127    3.61030    2.41911  33.0%     -    0s
     0     0    2.41916    0  127    3.61030    2.41916  33.0%     -    0s
     0     0    2.44325    0  169    3.61030    2.44325  32.3%     -    0s
     0     0    2.45900    0  152    3.61030    2.45900  31.9%     -    0s
     0     0    2.46443    0  176    3.61030    2.46443  31.7%     -    1s
     0     0    2.46718    0  156    3.61030    2.46718  31.7%     -    1s
     0     0    2.46723    0  157    3.61030    2.46723  31.7%     -    1s
     0     0    2.47311    0  158    3.61030    2.47311  31.5%     -    1s
     0     0    2.47523    0  151    3.61030    2.47523  31.4%     -    1s
     0     0    2.47552    0  145    3.61030    2.47552  31.4%     -    1s
     0     0    2.47562    0  150    3.61030    2.47562  31.4%     -    1s
     0     0    2.48169    0  138    3.61030    2.48169  31.3%     -    1s
H    0     0                       3.5050611    2.48169  29.2%     -    1s
     0     0    2.48396    0  142    3.50506    2.48396  29.1%     -    1s
     0     0    2.48467    0  140    3.50506    2.48467  29.1%     -    1s
     0     0    2.48491    0  124    3.50506    2.48491  29.1%     -    1s
     0     0    2.48496    0  129    3.50506    2.48496  29.1%     -    1s
     0     0    2.49228    0  131    3.50506    2.49228  28.9%     -    1s
H    0     0                       3.4093893    2.49228  26.9%     -    1s
     0     0    2.49289    0  148    3.40939    2.49289  26.9%     -    1s
     0     0    2.49397    0  163    3.40939    2.49397  26.9%     -    1s
     0     0    2.49401    0  161    3.40939    2.49401  26.8%     -    1s
     0     0    2.49568    0  151    3.40939    2.49568  26.8%     -    1s
H    0     0                       3.4040229    2.49568  26.7%     -    1s
     0     0    2.49605    0  153    3.40402    2.49605  26.7%     -    1s
     0     0    2.49621    0  156    3.40402    2.49621  26.7%     -    1s
     0     0    2.49843    0  176    3.40402    2.49843  26.6%     -    1s
     0     0    2.49907    0  159    3.40402    2.49907  26.6%     -    1s
     0     0    2.49918    0  159    3.40402    2.49918  26.6%     -    1s
     0     0    2.50127    0  131    3.40402    2.50127  26.5%     -    1s
     0     0    2.50169    0  136    3.40402    2.50169  26.5%     -    1s
     0     0    2.50172    0  126    3.40402    2.50172  26.5%     -    1s
     0     0    2.50232    0  123    3.40402    2.50232  26.5%     -    1s
     0     0    2.50232    0  123    3.40402    2.50232  26.5%     -    1s
H    0     0                       3.3912367    2.50232  26.2%     -    1s
     0     2    2.50651    0  122    3.39124    2.50651  26.1%     -    1s
H   26    26                       3.3692138    2.52865  24.9%   223    2s
H   27    27                       3.2439237    2.52865  22.0%   240    3s
H   78    72                       3.1622825    2.52865  20.0%   166    3s
   220   185    2.95156   44   47    3.16228    2.54683  19.5%   128    5s
H  510   389                       3.1133130    2.55376  18.0%   118    7s
H  513   371                       3.1112596    2.55376  17.9%   117    8s
H  534   365                       3.1033970    2.55710  17.6%   113    9s
   554   379    2.59652    9  179    3.10340    2.59652  16.3%   109   10s
H  569   369                       3.0984962    2.61713  15.5%   106   11s
H  600   368                       3.0372137    2.65255  12.7%   100   12s
H  625   364                       3.0207634    2.67672  11.4%  96.4   14s
   641   375    2.96760   83  204    3.02076    2.69668  10.7%  94.0   15s
H  692   385                       2.9887786    2.73169  8.60%   136   20s
   752   406    2.87890   41  109    2.98878    2.74926  8.01%   148   25s
  1020   399    2.90167   37  114    2.98878    2.75398  7.86%   155   30s
H 1102   325                       2.9432977    2.75398  6.43%   152   31s
  1336   379    2.78882   22  181    2.94330    2.78682  5.32%   156   35s
H 1476   337                       2.9364962    2.81090  4.28%   160   38s
  1600   353    2.88105   45  146    2.93650    2.82085  3.94%   158   40s
  2035   504    2.90477   25  129    2.93650    2.84280  3.19%   154   45s
  2519   573     cutoff   45         2.93650    2.85856  2.65%   150   50s
  2874   592    2.93124   39   82    2.93650    2.87426  2.12%   151   55s
  3284   573    2.92349   48  109    2.93650    2.89052  1.57%   148   60s
  3975   172     cutoff   52         2.93650    2.92181  0.50%   141   65s

Cutting planes:
  Gomory: 1
  Cover: 31
  Implied bound: 3
  Clique: 4
  MIR: 178
  StrongCG: 4
  Flow cover: 471
  GUB cover: 1
  RLT: 3
  Relax-and-lift: 93

Explored 4166 nodes (579190 simplex iterations) in 65.76 seconds
Thread count was 1 (of 4 available processors)

Solution count 10: 2.9365 2.9433 2.98878 ... 3.16228

Optimal solution found (tolerance 1.00e-04)
Best objective 2.936496205821e+00, best bound 2.936496205821e+00, gap 0.0000%
